(set-info :source  loris-7.ddns.comp.nus.edu.sg/~project/hip/) 
;Variables declarations
(declare-fun right_310_3254_primed () Int)
(declare-fun left_310_3253_primed () Int)
(declare-fun color_310_3252_primed () Int)
(declare-fun val_310_3251_primed () Int)
(declare-fun v_13882 () Int)
(declare-fun flted_12_13881 () Int)
(declare-fun n () Int)
(declare-fun bh () Int)
(declare-fun x_primed () Int)
(declare-fun x () Int)
(declare-fun cl () Int)
(declare-fun flted_12_13880 () Int)
(declare-fun bhl_13885 () Int)
(declare-fun nl_13884 () Int)
(declare-fun l_13883 () Int)
(declare-fun flted_12_13879 () Int)
(declare-fun bhr_13888 () Int)
(declare-fun nr_13887 () Int)
(declare-fun r_13886 () Int)
;Relations declarations
;Axioms assertions
;Antecedent
(assert (= right_310_3254_primed r_13886))
(assert (= left_310_3253_primed l_13883))
(assert (= color_310_3252_primed flted_12_13881))
(assert (= val_310_3251_primed v_13882))
(assert (= flted_12_13881 1))
(assert (= flted_12_13880 0))
(assert (= flted_12_13879 0))
(assert (= cl 1))
(assert (= n (+ (+ nr_13887 1) nl_13884)))
(assert (= bhl_13885 bh))
(assert (= bhr_13888 bh))
(assert (= x_primed x))
(assert (> x 0))
(assert (<= 0 cl))
(assert (<= cl 1))
(assert (or (and (and (and (= flted_12_13880 0) (<= 2 bhl_13885)) (<= 1 nl_13884)) (> l_13883 0)) (or (and (and (and (< l_13883 1) (= nl_13884 0)) (= bhl_13885 1)) (= flted_12_13880 0)) (and (and (and (= flted_12_13880 1) (<= 1 bhl_13885)) (<= 1 nl_13884)) (> l_13883 0)))))
(assert (or (and (and (and (= flted_12_13879 0) (<= 2 bhr_13888)) (<= 1 nr_13887)) (> r_13886 0)) (or (and (and (and (< r_13886 1) (= nr_13887 0)) (= bhr_13888 1)) (= flted_12_13879 0)) (and (and (and (= flted_12_13879 1) (<= 1 bhr_13888)) (<= 1 nr_13887)) (> r_13886 0)))))
;Negation of Consequence
(assert (not false))
(check-sat)